p cnf 55 67
-1 20 -2 8 13 37 -38 -39 -40 -41 -42 -43 -44 -45 -46 -47 -48 -49 -50 -51 -52 -55 -11 -24 0 
-1 20 -2 8 13 38 -39 -40 -41 -42 -43 -44 -45 -46 -47 -48 -49 -50 -51 -52 -55 0 
-3 4 6 7 9 10 17 18 19 30 31 32 33 34 35 38 -39 -40 -41 -42 -43 -44 -45 -46 -47 -48 -49 -50 -51 -52 -55 0 
-1 20 38 -39 -40 -41 -42 -43 -44 -45 -46 -47 -48 -49 -50 -51 -52 -55 0 
-4 3 6 7 9 10 17 18 19 30 31 32 33 34 35 38 -39 -40 -41 -42 -43 -44 -45 -46 -47 -48 -49 -50 -51 -52 -55 0 
-5 28 37 -38 -39 -40 -41 -42 -43 -44 -45 -46 -47 -48 -49 -50 -51 -52 -55 -11 -24 0 
-6 3 4 7 9 10 17 18 19 30 31 32 33 34 35 38 -39 -40 -41 -42 -43 -44 -45 -46 -47 -48 -49 -50 -51 -52 -55 0 
-7 3 4 6 9 10 17 18 19 30 31 32 33 34 35 38 -39 -40 -41 -42 -43 -44 -45 -46 -47 -48 -49 -50 -51 -52 -55 0 
-5 28 -8 2 13 38 -39 -40 -41 -42 -43 -44 -45 -46 -47 -48 -49 -50 -51 -52 -55 0 
-9 3 4 6 7 10 17 18 19 30 31 32 33 34 35 38 -39 -40 -41 -42 -43 -44 -45 -46 -47 -48 -49 -50 -51 -52 -55 0 
-10 3 4 6 7 9 17 18 19 30 31 32 33 34 35 38 -39 -40 -41 -42 -43 -44 -45 -46 -47 -48 -49 -50 -51 -52 -55 0 
-11 24 39 -38 -40 -41 -42 -43 -44 -45 -46 -47 -48 -49 -50 -51 -52 -55 0 
-3 4 6 7 9 10 17 18 19 30 31 32 33 34 35 -5 28 37 -38 -39 -40 -41 -42 -43 -44 -45 -46 -47 -48 -49 -50 -51 -52 -55 -11 -24 0 
-12 27 39 -38 -40 -41 -42 -43 -44 -45 -46 -47 -48 -49 -50 -51 -52 -55 0 
-3 4 6 7 9 10 17 18 19 30 31 32 33 34 35 -5 28 38 -39 -40 -41 -42 -43 -44 -45 -46 -47 -48 -49 -50 -51 -52 -55 0 
-13 2 8 38 -39 -40 -41 -42 -43 -44 -45 -46 -47 -48 -49 -50 -51 -52 -55 0 
-14 38 -39 -40 -41 -42 -43 -44 -45 -46 -47 -48 -49 -50 -51 -52 -55 0 
-15 -16 -14 38 -39 -40 -41 -42 -43 -44 -45 -46 -47 -48 -49 -50 -51 -52 -55 0 
-4 3 6 7 9 10 17 18 19 30 31 32 33 34 35 37 -38 -39 -40 -41 -42 -43 -44 -45 -46 -47 -48 -49 -50 -51 -52 -55 -11 -24 0 
-10 3 4 6 7 9 17 18 19 30 31 32 33 34 35 37 -38 -39 -40 -41 -42 -43 -44 -45 -46 -47 -48 -49 -50 -51 -52 -55 -11 -24 0 
-17 3 4 6 7 9 10 18 19 30 31 32 33 34 35 37 -38 -39 -40 -41 -42 -43 -44 -45 -46 -47 -48 -49 -50 -51 -52 -55 -11 -24 0 
-18 3 4 6 7 9 10 17 19 30 31 32 33 34 35 37 -38 -39 -40 -41 -42 -43 -44 -45 -46 -47 -48 -49 -50 -51 -52 -55 -11 -24 0 
-3 4 6 7 9 10 17 18 19 30 31 32 33 34 35 37 -38 -39 -40 -41 -42 -43 -44 -45 -46 -47 -48 -49 -50 -51 -52 -55 -11 -24 0 
-17 3 4 6 7 9 10 18 19 30 31 32 33 34 35 38 -39 -40 -41 -42 -43 -44 -45 -46 -47 -48 -49 -50 -51 -52 -55 0 
-18 3 4 6 7 9 10 17 19 30 31 32 33 34 35 38 -39 -40 -41 -42 -43 -44 -45 -46 -47 -48 -49 -50 -51 -52 -55 0 
-7 3 4 6 9 10 17 18 19 30 31 32 33 34 35 37 -38 -39 -40 -41 -42 -43 -44 -45 -46 -47 -48 -49 -50 -51 -52 -55 -11 -24 0 
-19 3 4 6 7 9 10 17 18 30 31 32 33 34 35 37 -38 -39 -40 -41 -42 -43 -44 -45 -46 -47 -48 -49 -50 -51 -52 -55 -11 -24 0 
-9 3 4 6 7 10 17 18 19 30 31 32 33 34 35 37 -38 -39 -40 -41 -42 -43 -44 -45 -46 -47 -48 -49 -50 -51 -52 -55 -11 -24 0 
-6 3 4 7 9 10 17 18 19 30 31 32 33 34 35 37 -38 -39 -40 -41 -42 -43 -44 -45 -46 -47 -48 -49 -50 -51 -52 -55 -11 -24 0 
-19 3 4 6 7 9 10 17 18 30 31 32 33 34 35 38 -39 -40 -41 -42 -43 -44 -45 -46 -47 -48 -49 -50 -51 -52 -55 0 
-20 1 40 -38 -39 -41 -42 -43 -44 -45 -46 -47 -48 -49 -50 -51 -52 -55 0 
-1 20 37 -38 -39 -40 -41 -42 -43 -44 -45 -46 -47 -48 -49 -50 -51 -52 -55 -11 -24 0 
-5 28 -8 2 13 37 -38 -39 -40 -41 -42 -43 -44 -45 -46 -47 -48 -49 -50 -51 -52 -55 -11 -24 0 
-5 28 38 -39 -40 -41 -42 -43 -44 -45 -46 -47 -48 -49 -50 -51 -52 -55 0 
-21 41 -38 -39 -40 -42 -43 -44 -45 -46 -47 -48 -49 -50 -51 -52 -55 0 
-22 25 42 -38 -39 -40 -41 -43 -44 -45 -46 -47 -48 -49 -50 -51 -52 -55 0 
-21 43 -38 -39 -40 -41 -42 -44 -45 -46 -47 -48 -49 -50 -51 -52 -55 0 
-21 44 -38 -39 -40 -41 -42 -43 -45 -46 -47 -48 -49 -50 -51 -52 -55 0 
-21 45 -38 -39 -40 -41 -42 -43 -44 -46 -47 -48 -49 -50 -51 -52 -55 0 
-21 46 -38 -39 -40 -41 -42 -43 -44 -45 -47 -48 -49 -50 -51 -52 -55 0 
-21 47 -38 -39 -40 -41 -42 -43 -44 -45 -46 -48 -49 -50 -51 -52 -55 0 
-21 48 -38 -39 -40 -41 -42 -43 -44 -45 -46 -47 -49 -50 -51 -52 -55 0 
-21 49 -38 -39 -40 -41 -42 -43 -44 -45 -46 -47 -48 -50 -51 -52 -55 0 
-21 50 -38 -39 -40 -41 -42 -43 -44 -45 -46 -47 -48 -49 -51 -52 -55 0 
-21 51 -38 -39 -40 -41 -42 -43 -44 -45 -46 -47 -48 -49 -50 -52 -55 0 
-21 52 -38 -39 -40 -41 -42 -43 -44 -45 -46 -47 -48 -49 -50 -51 -55 0 
-23 29 39 -38 -40 -41 -42 -43 -44 -45 -46 -47 -48 -49 -50 -51 -52 -55 0 
-24 11 -10 3 4 6 7 9 17 18 19 30 31 32 33 34 35 38 -39 -40 -41 -42 -43 -44 -45 -46 -47 -48 -49 -50 -51 -52 -55 0 
-25 22 37 -38 -39 -40 -41 -42 -43 -44 -45 -46 -47 -48 -49 -50 -51 -52 -55 -11 -24 0 
-16 37 -38 -39 -40 -41 -42 -43 -44 -45 -46 -47 -48 -49 -50 -51 -52 -55 -11 -24 0 
-26 38 -39 -40 -41 -42 -43 -44 -45 -46 -47 -48 -49 -50 -51 -52 -55 0 
-16 38 -39 -40 -41 -42 -43 -44 -45 -46 -47 -48 -49 -50 -51 -52 -55 0 
-27 12 -16 38 -39 -40 -41 -42 -43 -44 -45 -46 -47 -48 -49 -50 -51 -52 -55 0 
-28 5 37 -38 -39 -40 -41 -42 -43 -44 -45 -46 -47 -48 -49 -50 -51 -52 -55 -11 -24 0 
-21 50 -38 -39 -40 -41 -42 -43 -44 -45 -46 -47 -48 -49 -51 -52 -55 0 
-15 38 -39 -40 -41 -42 -43 -44 -45 -46 -47 -48 -49 -50 -51 -52 -55 0 
-15 37 -38 -39 -40 -41 -42 -43 -44 -45 -46 -47 -48 -49 -50 -51 -52 -55 -11 -24 0 
-1 20 -8 2 13 38 -39 -40 -41 -42 -43 -44 -45 -46 -47 -48 -49 -50 -51 -52 -55 0 
-29 23 53 -3 -4 -6 -7 -9 -10 -17 -18 -19 -30 -31 -32 -33 -34 -35 -38 -39 -40 -41 -42 -43 -44 -45 -46 -47 -48 -49 -50 -51 -52 -55 0 
-30 3 4 6 7 9 10 17 18 19 31 32 33 34 35 40 -38 -39 -41 -42 -43 -44 -45 -46 -47 -48 -49 -50 -51 -52 -55 0 
-31 3 4 6 7 9 10 17 18 19 30 32 33 34 35 40 -38 -39 -41 -42 -43 -44 -45 -46 -47 -48 -49 -50 -51 -52 -55 0 
-32 3 4 6 7 9 10 17 18 19 30 31 33 34 35 54 -38 -39 -40 -41 -42 -43 -44 -45 -46 -47 -48 -49 -50 -51 -52 -55 -23 -29 0 
-33 3 4 6 7 9 10 17 18 19 30 31 32 34 35 40 -38 -39 -41 -42 -43 -44 -45 -46 -47 -48 -49 -50 -51 -52 -55 0 
-34 3 4 6 7 9 10 17 18 19 30 31 32 33 35 -24 11 40 -38 -39 -41 -42 -43 -44 -45 -46 -47 -48 -49 -50 -51 -52 -55 0 
-35 3 4 6 7 9 10 17 18 19 30 31 32 33 34 -11 24 39 -38 -40 -41 -42 -43 -44 -45 -46 -47 -48 -49 -50 -51 -52 -55 0 
-29 23 55 -38 -39 -40 -41 -42 -43 -44 -45 -46 -47 -48 -49 -50 -51 -52 0 
-36 37 -38 -39 -40 -41 -42 -43 -44 -45 -46 -47 -48 -49 -50 -51 -52 -55 -11 -24 0 
